c defined variables: 8 9 10 11 12 13 14 15 16 17 18 19 20 21 22 23 24 25 26 27 28 29 30 31 32 33 62 64 67 69 71 72 73 74 75 76 77 78 79 80 81 82 85 86 87 88 89 90 
p cnf 417 623
a 1 2 3 4 5 6 7 40 41 42 43 44 45 46 47 48 49 50 51 52 53 54 55 56 57 58 0
e 8 9 10 11 12 13 14 15 16 17 18 19 20 21 22 23 24 25 26 27 28 29 30 31 32 33 62 64 67 69 71 72 73 74 75 76 77 78 79 80 81 82 85 86 87 88 89 90 317 318 319 320 321 322 323 324 325 326 327 328 329 330 331 332 333 334 335 336 337 338 339 340 341 342 343 344 345 346 347 348 349 350 351 352 353 354 355 356 357 358 359 360 361 362 363 364 365 366 367 368 369 370 371 372 373 374 375 376 377 378 379 380 381 382 383 384 385 386 387 388 389 390 391 392 393 394 395 396 397 398 399 400 401 402 403 404 405 406 407 408 409 410 411 412 413 414 415 416 417 0
d 34 46 47 48 49 0
d 35 42 43 0
d 36 52 53 54 55 56 57 58 0
d 37 50 51 0
d 38 40 41 0
d 39 44 45 0
d 59 1 2 3 4 5 6 7 40 41 42 43 44 45 46 47 48 49 50 51 52 53 54 55 56 57 58 0
d 60 1 2 3 4 5 6 7 40 41 42 43 44 45 46 47 48 49 50 51 52 53 54 55 56 57 58 0
d 61 1 2 3 4 5 6 7 40 41 42 43 44 45 46 47 48 49 50 51 52 53 54 55 56 57 58 0
d 63 1 2 3 4 5 6 7 40 41 42 43 44 45 46 47 48 49 50 51 52 53 54 55 56 57 58 0
d 65 1 2 3 4 5 6 7 40 41 42 43 44 45 46 47 48 49 50 51 52 53 54 55 56 57 58 0
d 66 1 2 3 4 5 6 7 40 41 42 43 44 45 46 47 48 49 50 51 52 53 54 55 56 57 58 0
d 68 1 2 3 4 5 6 7 40 41 42 43 44 45 46 47 48 49 50 51 52 53 54 55 56 57 58 0
d 70 1 2 3 4 5 6 7 40 41 42 43 44 45 46 47 48 49 50 51 52 53 54 55 56 57 58 0
d 83 1 2 3 4 5 6 7 40 41 42 43 44 45 46 47 48 49 50 51 52 53 54 55 56 57 58 0
d 84 1 2 3 4 5 6 7 40 41 42 43 44 45 46 47 48 49 50 51 52 53 54 55 56 57 58 0
d 91 1 2 3 4 5 6 7 40 41 42 43 44 45 46 47 48 49 50 51 52 53 54 55 56 57 58 0
317 -8 0
-317 8 0
318 -9 0
-318 9 0
-319 -10 0
319 10 0
320 -11 0
-320 11 0
321 -12 0
-321 12 0
-322 -13 0
322 13 0
323 -14 0
-323 14 0
324 -15 0
-324 15 0
-325 -16 0
325 16 0
326 -17 0
-326 17 0
327 -18 0
-327 18 0
-328 -19 0
328 19 0
329 -20 0
-329 20 0
330 -21 0
-330 21 0
-331 -22 0
331 22 0
-332 -23 0
332 23 0
333 -24 0
-333 24 0
335 -25 0
-335 25 0
337 -26 0
-337 26 0
-339 -27 0
339 27 0
340 -28 0
-340 28 0
341 -29 0
-341 29 0
343 -30 0
-343 30 0
344 -31 0
-344 31 0
345 -32 0
-345 32 0
-349 -33 0
349 33 0
344 -62 0
-344 62 0
-353 -64 0
353 64 0
-354 -67 0
354 67 0
357 -69 0
-357 69 0
360 -71 0
-360 71 0
363 -72 0
-363 72 0
366 -73 0
-366 73 0
369 -74 0
-369 74 0
372 -75 0
-372 75 0
375 -76 0
-375 76 0
378 -77 0
-378 77 0
381 -78 0
-381 78 0
384 -79 0
-384 79 0
387 -80 0
-387 80 0
390 -81 0
-390 81 0
393 -82 0
-393 82 0
396 -85 0
-396 85 0
399 -86 0
-399 86 0
402 -87 0
-402 87 0
405 -88 0
-405 88 0
-411 -89 0
411 89 0
417 -90 0
-417 90 0
-8 1 0
-8 4 0
-1 -4 8 0
-9 -1 0
-9 -4 0
1 4 9 0
-8 10 0
-9 10 0
-10 8 9 0
-11 7 0
-11 10 0
-7 -10 11 0
-12 -7 0
-12 -10 0
7 10 12 0
-11 13 0
-12 13 0
-13 11 12 0
-14 4 0
-14 7 0
-4 -7 14 0
-15 1 0
-15 -13 0
-1 13 15 0
-14 16 0
-15 16 0
-16 14 15 0
-17 3 0
-17 6 0
-3 -6 17 0
-18 -3 0
-18 -6 0
3 6 18 0
-17 19 0
-18 19 0
-19 17 18 0
-20 16 0
-20 19 0
-16 -19 20 0
-21 -16 0
-21 -19 0
16 19 21 0
-20 22 0
-21 22 0
-22 20 21 0
-2 23 0
-5 23 0
-23 2 5 0
-24 2 0
-24 5 0
-2 -5 24 0
-25 3 0
-25 -22 0
-25 23 0
-3 22 -23 25 0
-26 6 0
-26 16 0
-26 23 0
-6 -16 -23 26 0
-24 27 0
-25 27 0
-26 27 0
-27 24 25 26 0
-28 -27 0
-28 23 0
27 -23 28 0
-29 3 0
-29 6 0
-29 -27 0
-3 -6 27 29 0
-30 -27 0
-30 -22 0
-30 16 0
27 22 -16 30 0
-31 2 0
-31 3 0
-31 5 0
-31 6 0
-2 -3 -5 -6 31 0
-32 2 0
-32 5 0
-32 -22 0
-32 16 0
-2 -5 22 -16 32 0
-28 33 0
-29 33 0
-30 33 0
-31 33 0
-32 33 0
-33 28 29 30 31 32 0
-59 -36 0
-59 35 0
36 -35 59 0
-60 3 0
-60 6 0
-60 -36 0
-3 -6 36 60 0
-61 -36 0
-61 -37 0
-61 -34 0
36 37 34 61 0
-62 2 0
-62 3 0
-62 5 0
-62 6 0
-2 -3 -5 -6 62 0
-63 2 0
-63 5 0
-63 -37 0
-63 34 0
-2 -5 37 -34 63 0
-59 64 0
-60 64 0
-61 64 0
-62 64 0
-63 64 0
-64 59 60 61 62 63 0
-65 7 0
-65 38 0
-7 -38 65 0
-66 -7 0
-66 -38 0
7 38 66 0
-65 67 0
-66 67 0
-67 65 66 0
-68 -27 36 0
-68 27 -36 0
68 -27 -36 0
68 27 36 0
-69 -33 64 0
-69 33 -64 0
69 -33 -64 0
69 33 64 0
-70 -22 37 0
-70 22 -37 0
70 -22 -37 0
70 22 37 0
-71 -13 67 0
-71 13 -67 0
71 -13 -67 0
71 13 67 0
-68 -69 -70 -71 72 0
-72 68 0
-72 69 0
-72 70 0
-72 71 0
-1 -40 -73 0
-1 40 73 0
1 -40 73 0
1 40 -73 0
-4 -41 -74 0
-4 41 74 0
4 -41 74 0
4 41 -74 0
-2 -42 -75 0
-2 42 75 0
2 -42 75 0
2 42 -75 0
-5 -43 -76 0
-5 43 76 0
5 -43 76 0
5 43 -76 0
-3 -44 -77 0
-3 44 77 0
3 -44 77 0
3 44 -77 0
-6 -45 -78 0
-6 45 78 0
6 -45 78 0
6 45 -78 0
-1 -46 -79 0
-1 46 79 0
1 -46 79 0
1 46 -79 0
-4 -47 -80 0
-4 47 80 0
4 -47 80 0
4 47 -80 0
-7 -48 -81 0
-7 48 81 0
7 -48 81 0
7 48 -81 0
-67 -49 -82 0
-67 49 82 0
67 -49 82 0
67 49 -82 0
-34 -50 -83 0
-34 50 83 0
34 -50 83 0
34 50 -83 0
-39 -51 -84 0
-39 51 84 0
39 -51 84 0
39 51 -84 0
-2 -52 -85 0
-2 52 85 0
2 -52 85 0
2 52 -85 0
-3 -53 -86 0
-3 53 86 0
3 -53 86 0
3 53 -86 0
-5 -54 -87 0
-5 54 87 0
5 -54 87 0
5 54 -87 0
-6 -55 -88 0
-6 55 88 0
6 -55 88 0
6 55 -88 0
-37 -56 -89 0
-37 56 89 0
37 -56 89 0
37 56 -89 0
-34 -57 -90 0
-34 57 90 0
34 -57 90 0
34 57 -90 0
-35 -58 -91 0
-35 58 91 0
35 -58 91 0
35 58 -91 0
73 74 75 76 77 78 79 80 81 82 83 84 85 86 87 88 89 90 91 72 0
1 -317 0
4 -317 0
-1 -4 317 0
-1 -318 0
-4 -318 0
1 4 318 0
-8 -319 0
-9 -319 0
8 9 319 0
7 -320 0
10 -320 0
-7 -10 320 0
-7 -321 0
-10 -321 0
7 10 321 0
-11 -322 0
-12 -322 0
11 12 322 0
4 -323 0
7 -323 0
-4 -7 323 0
1 -324 0
-13 -324 0
-1 13 324 0
-14 -325 0
-15 -325 0
14 15 325 0
3 -326 0
6 -326 0
-3 -6 326 0
-3 -327 0
-6 -327 0
3 6 327 0
-17 -328 0
-18 -328 0
17 18 328 0
16 -329 0
19 -329 0
-16 -19 329 0
-16 -330 0
-19 -330 0
16 19 330 0
-20 -331 0
-21 -331 0
20 21 331 0
-2 -332 0
-5 -332 0
2 5 332 0
2 -333 0
5 -333 0
-2 -5 333 0
3 -334 0
-22 -334 0
-3 22 334 0
23 -335 0
334 -335 0
-23 -334 335 0
6 -336 0
16 -336 0
-6 -16 336 0
23 -337 0
336 -337 0
-23 -336 337 0
-24 -338 0
-25 -338 0
24 25 338 0
-26 -339 0
338 -339 0
26 -338 339 0
23 -340 0
-27 -340 0
-23 27 340 0
-27 -341 0
326 -341 0
27 -326 341 0
16 -342 0
-22 -342 0
-16 22 342 0
-27 -343 0
342 -343 0
27 -342 343 0
326 -344 0
333 -344 0
-326 -333 344 0
333 -345 0
342 -345 0
-333 -342 345 0
-28 -346 0
-29 -346 0
28 29 346 0
-30 -347 0
-31 -347 0
30 31 347 0
-32 -348 0
347 -348 0
32 -347 348 0
346 -349 0
348 -349 0
-346 -348 349 0
-59 -350 0
-60 -350 0
59 60 350 0
-61 -351 0
-62 -351 0
61 62 351 0
-63 -352 0
351 -352 0
63 -351 352 0
350 -353 0
352 -353 0
-350 -352 353 0
-65 -354 0
-66 -354 0
65 66 354 0
33 -355 0
-64 -355 0
-33 64 355 0
-33 -356 0
64 -356 0
33 -64 356 0
-355 -357 0
-356 -357 0
355 356 357 0
13 -358 0
-67 -358 0
-13 67 358 0
-13 -359 0
67 -359 0
13 -67 359 0
-358 -360 0
-359 -360 0
358 359 360 0
68 -361 0
69 -361 0
-68 -69 361 0
70 -362 0
71 -362 0
-70 -71 362 0
361 -363 0
362 -363 0
-361 -362 363 0
-1 -364 0
-40 -364 0
1 40 364 0
1 -365 0
40 -365 0
-1 -40 365 0
-364 -366 0
-365 -366 0
364 365 366 0
-4 -367 0
-41 -367 0
4 41 367 0
4 -368 0
41 -368 0
-4 -41 368 0
-367 -369 0
-368 -369 0
367 368 369 0
-2 -370 0
-42 -370 0
2 42 370 0
2 -371 0
42 -371 0
-2 -42 371 0
-370 -372 0
-371 -372 0
370 371 372 0
-5 -373 0
-43 -373 0
5 43 373 0
5 -374 0
43 -374 0
-5 -43 374 0
-373 -375 0
-374 -375 0
373 374 375 0
-3 -376 0
-44 -376 0
3 44 376 0
3 -377 0
44 -377 0
-3 -44 377 0
-376 -378 0
-377 -378 0
376 377 378 0
-6 -379 0
-45 -379 0
6 45 379 0
6 -380 0
45 -380 0
-6 -45 380 0
-379 -381 0
-380 -381 0
379 380 381 0
-1 -382 0
-46 -382 0
1 46 382 0
1 -383 0
46 -383 0
-1 -46 383 0
-382 -384 0
-383 -384 0
382 383 384 0
-4 -385 0
-47 -385 0
4 47 385 0
4 -386 0
47 -386 0
-4 -47 386 0
-385 -387 0
-386 -387 0
385 386 387 0
-7 -388 0
-48 -388 0
7 48 388 0
7 -389 0
48 -389 0
-7 -48 389 0
-388 -390 0
-389 -390 0
388 389 390 0
-49 -391 0
-67 -391 0
49 67 391 0
49 -392 0
67 -392 0
-49 -67 392 0
-391 -393 0
-392 -393 0
391 392 393 0
-2 -394 0
-52 -394 0
2 52 394 0
2 -395 0
52 -395 0
-2 -52 395 0
-394 -396 0
-395 -396 0
394 395 396 0
-3 -397 0
-53 -397 0
3 53 397 0
3 -398 0
53 -398 0
-3 -53 398 0
-397 -399 0
-398 -399 0
397 398 399 0
-5 -400 0
-54 -400 0
5 54 400 0
5 -401 0
54 -401 0
-5 -54 401 0
-400 -402 0
-401 -402 0
400 401 402 0
-6 -403 0
-55 -403 0
6 55 403 0
6 -404 0
55 -404 0
-6 -55 404 0
-403 -405 0
-404 -405 0
403 404 405 0
-22 -406 0
70 -406 0
22 -70 406 0
22 -407 0
-70 -407 0
-22 70 407 0
-406 -408 0
-407 -408 0
406 407 408 0
56 -409 0
-408 -409 0
-56 408 409 0
-56 -410 0
408 -410 0
56 -408 410 0
-409 -411 0
-410 -411 0
409 410 411 0
-57 -412 0
83 -412 0
57 -83 412 0
57 -413 0
-83 -413 0
-57 83 413 0
-412 -414 0
-413 -414 0
412 413 414 0
50 -415 0
-414 -415 0
-50 414 415 0
-50 -416 0
414 -416 0
50 -414 416 0
-415 -417 0
-416 -417 0
415 416 417 0
